(declare-fun q__0 () Int)
(declare-fun q__1 () Int)
(declare-fun q__2 () Int)
(declare-fun q__3 () Int)
(declare-fun q__4 () Int)
(declare-fun q__5 () Int)
(declare-fun q__6 () Int)
(declare-fun q__7 () Int)
(declare-fun q__8 () Int)
(assert (and (>= q__0 0) (< q__0 9)))
(assert (and (>= q__1 0) (< q__1 9)))
(assert (and (>= q__2 0) (< q__2 9)))
(assert (and (>= q__3 0) (< q__3 9)))
(assert (and (>= q__4 0) (< q__4 9)))
(assert (and (>= q__5 0) (< q__5 9)))
(assert (and (>= q__6 0) (< q__6 9)))
(assert (and (>= q__7 0) (< q__7 9)))
(assert (and (>= q__8 0) (< q__8 9)))
(assert (distinct q__0 q__1 q__2 q__3 q__4 q__5 q__6 q__7 q__8))
(assert (distinct (ite (> (- q__0 q__1) 0) (- q__0 q__1) (- (- q__0 q__1))) 1))
(assert (distinct (ite (> (- q__1 q__2) 0) (- q__1 q__2) (- (- q__1 q__2))) 1))
(assert (distinct (ite (> (- q__2 q__3) 0) (- q__2 q__3) (- (- q__2 q__3))) 1))
(assert (distinct (ite (> (- q__3 q__4) 0) (- q__3 q__4) (- (- q__3 q__4))) 1))
(assert (distinct (ite (> (- q__4 q__5) 0) (- q__4 q__5) (- (- q__4 q__5))) 1))
(assert (distinct (ite (> (- q__5 q__6) 0) (- q__5 q__6) (- (- q__5 q__6))) 1))
(assert (distinct (ite (> (- q__6 q__7) 0) (- q__6 q__7) (- (- q__6 q__7))) 1))
(assert (distinct (ite (> (- q__7 q__8) 0) (- q__7 q__8) (- (- q__7 q__8))) 1))
(assert (or (= q__0 0)
    (= q__0 1)
    (= q__0 2)
    (= q__0 3)
    (= q__0 4)
    (= q__0 5)
    (= q__0 6)
    (= q__0 7)
    (= q__0 8)
    (= q__1 0)
    (= q__1 1)
    (= q__2 0)
    (= q__3 0)
    (= q__4 0)
    (= q__5 0)
    (= q__6 0)
    (= q__7 0)
    (= q__8 0)
    (= q__8 1)))
(assert (or (= q__1 2)
    (= q__2 1)
    (= q__2 2)
    (= q__3 1)
    (= q__4 1)
    (= q__5 1)
    (= q__6 1)
    (= q__6 2)
    (= q__7 1)
    (= q__7 2)
    (= q__8 2)
    (= q__8 3)))
(assert (or (= q__1 3) (= q__1 4) (= q__1 5) (= q__2 4) (= q__3 4)))
(assert (or (= q__2 3)
    (= q__3 2)
    (= q__3 3)
    (= q__4 2)
    (= q__5 2)
    (= q__5 3)
    (= q__6 3)))
(assert (or (= q__7 3) (= q__7 4) (= q__7 5) (= q__8 4)))
(assert (or (= q__4 3) (= q__4 4) (= q__4 5) (= q__5 4) (= q__6 4)))
(assert (or (= q__3 5)
    (= q__3 6)
    (= q__4 6)
    (= q__4 7)
    (= q__5 5)
    (= q__5 6)
    (= q__6 5)))
(assert (or (= q__6 6) (= q__7 6) (= q__7 7) (= q__8 5) (= q__8 6)))
(assert (or (= q__1 6)
    (= q__1 7)
    (= q__1 8)
    (= q__2 5)
    (= q__2 6)
    (= q__2 7)
    (= q__2 8)
    (= q__3 7)
    (= q__3 8)
    (= q__4 8)
    (= q__5 7)
    (= q__5 8)
    (= q__6 7)
    (= q__6 8)
    (= q__7 8)
    (= q__8 7)
    (= q__8 8)))

(check-sat)
(get-model)
